c --- [ banner ] -------------------------------------------------------------
c 
c CaDiCaL Radically Simplified CDCL SAT Solver
c Copyright (c) 2016-2021 A. Biere, M. Fleury, N. Froleyks
c 
c Version 1.5.2 9c38a080b32c28d805e8e6ca21849856b0cda605
c g++ (Ubuntu 7.5.0-3ubuntu1~18.04) 7.5.0 -Wall -Wextra -O3 -DNDEBUG
c Wed Feb 16 23:15:36 EST 2022 Linux fac-vanhoeve01 5.4.0-99-generic x86_64
c 
c --- [ limit ] --------------------------------------------------------------
c 
c setting time limit to 600 seconds real time (due to '-t 600')
c setting conflict limit to 1000000000 conflicts (due to '1000000000')
c 
c --- [ parsing input ] ------------------------------------------------------
c 
c reading DIMACS file from 'ddfwcnfs/wap04a.col_40.cnf'
c opening file to read 'ddfwcnfs/wap04a.col_40.cnf'
c found 'p cnf 209240 11517191' header
c parsed 11517191 clauses in 6.41 seconds process time
c closing file 'ddfwcnfs/wap04a.col_40.cnf'
c after reading 199732645 bytes 190.5 MB
c 
c --- [ options ] ------------------------------------------------------------
c 
c all options are set to their default value
c 
c --- [ solving ] ------------------------------------------------------------
c 
c time measured in process time since initialization
c 
c  seconds   reductions  redundant   irredundant
c          MB    restarts       trail         variables
c           level   conflicts       glue            remaining
c 
c *  6.41 997  0 0   0    0    0  0% 0 11515591 207640 99%
c {  6.44 1000  0 0   0    0    0  0% 0 11515591 207640 99%
c -  8.25 1000 40 1   0  301  103  2% 36 11515591 207640 99%
c }  8.43 1000 40 1   0 1000  372  2% 36 11515591 207640 99%
c [  8.43 1000  0 1   0 1000  372  0% 0 11515591 207640 99%
c O  8.43 1000 55 1   0 1005  376  2% 37 11515591 207640 99%
c - 13.32 1265 43 2   1 2137  944  2% 39 11515591 207640 99%
c ] 13.42 1265 45 2   1 3002 1590  2% 40 11515591 207640 99%
c { 13.42 1265 40 2   1 3002 1590  2% 36 11515591 207640 99%
c F 13.42 1265 40 2   1 3009 1596  2% 36 11515591 207640 99%
c - 16.96 1265 45 3   9 4892 2265  3% 38 11515591 207640 99%
c # 25.56 1258 44 3  12 6010 3012  3% 38 11515591 207640 99%
c } 25.66 1258 50 3  12 7002 3813  3% 38 11515591 207640 99%
c [ 25.66 1258 45 3  12 7002 3813  2% 40 11515591 207640 99%
c - 29.32 1259 47 4  13 8565 3596  3% 41 11515591 207640 99%
c I 29.51 1259 53 4  14 10011 4698  3% 41 11515591 207640 99%
c s 33.21 1259 5294 4  16 11587 5555  9% 50 11515591 207640 99%
c e 52.14 1260 5294 4  16 11587 1703  9% 50 10703141 198403 95%
c - 58.48 1257 9355 5  16 13159 2425 15% 53 10703141 198403 95%
c ] 67.51 1257 14060 5  17 15002 3979 21% 66 10703141 198403 95%
c 
c  seconds    reductions   redundant    irredundant
c          MB     restarts        trail          variables
c            level    conflicts       glue             remaining
c 
c { 67.51 1257 50 5  17 15002 3979  3% 38 10703141 198403 95%
c B 67.56 1257 89 5  17 15012 3989  3% 38 10703141 198403 95%
c - 71.16 1258 229 6  22 18612 4685  3% 34 10703141 198403 95%
c W 74.79 1258 188 6  22 21015 6464  3% 34 10703141 198403 95%
c - 78.37 1257 150 7  26 24976 5923  3% 33 10703141 198403 95%
c F 78.66 1257 131 7  26 28018 8038  3% 32 10703141 198403 95%
c } 87.40 1257 116 7  28 31002 10191  3% 32 10703141 198403 95%
c [ 87.40 1257 14060 7  28 31002 10191 21% 66 10703141 198403 95%
c - 90.85 1258 12429 8  28 32247 7251 19% 62 10703141 198403 95%
c s 93.84 1258 10169 8  30 34602 8319 17% 59 10703141 198403 95%
c s 105.54 1258 10169 8  30 34602 8109 17% 59 10703141 198403 95%
c ^ 107.57 1258 10169 8  30 34602 8109 17% 59 10703141 198403 95%
c B 107.71 1258 9146 8  31 36021 9182 15% 58 10703141 198403 95%
c - 112.34 1259 10895 9  34 40426 8931 19% 66 10703141 198403 95%
c W 117.33 1259 9656 9  35 45022 12453 22% 80 10703141 198403 95%
c - 121.50 1260 9822 10  36 49515 9358 28% 80 10703141 198403 95%
c O 130.67 1260 8236 10  37 55025 13498 25% 82 10703141 198403 95%
c - 134.36 1259 7112 11  41 59512 9898 22% 76 10703141 198403 95%
c ] 134.73 1259 6408 11  43 63003 12224 20% 73 10703141 198403 95%
c { 134.73 1259 116 11  43 63003 12224  3% 32 10703141 198403 95%
c 
c  seconds      reductions     redundant    irredundant
c           MB       restarts         trail          variables
c              level     conflicts        glue             remaining
c 
c B 134.99 1259 111 11  43 66027 14803  3% 31 10703141 198403 95%
c s 135.99 1259 125 11 846 69124 15578  4% 32 10703141 198403 95%
c s 152.82 1259 125 11 846 69124 15378  4% 32 10703141 198403 95%
c ^ 154.88 1259 125 11 846 69124 15378  4% 32 10703141 198403 95%
c - 158.61 1258 121 12 1171 70421 8991  4% 32 10703141 198403 95%
c W 172.13 1258 101 12 2924 78028 11323  4% 33 10703141 198403 95%
c - 175.80 1258 94 13 3734 82238 6238  4% 34 10703141 198403 95%
c # 176.71 1258 84 13 4582 91030 9840  4% 35 10703141 198403 95%
c - 180.40 1258 80 14 4654 94964 7366  4% 35 10703141 198403 95%
c B 190.01 1258 71 14 4750 105031 13425  4% 35 10703141 198403 95%
c - 193.69 1258 70 15 4916 108597 9591  4% 35 10703141 198403 95%
c s 194.67 1258 66 15 5090 115154 12313  4% 36 10703141 198403 95%
c s 211.60 1258 66 15 5090 115154 10860  4% 36 10703141 198403 95%
c ^ 213.66 1258 66 15 5090 115154 10860  4% 36 10703141 198403 95%
c W 219.34 1258 64 15 5263 120033 13064  4% 36 10703141 198403 95%
c - 223.23 1258 63 16 5313 123139 8855  4% 36 10703141 198403 95%
c } 223.59 1258 61 16 5362 127003 10692  4% 36 10703141 198403 95%
c [ 223.59 1258 6408 16 5362 127003 10692 20% 73 10703141 198403 95%
c B 225.68 1258 8412 16 5367 136034 17713 23% 86 10703141 198403 95%
c - 229.18 1262 7903 17 5368 138591 12882 22% 84 10703141 198403 95%
c 
c  seconds       reductions       redundant    irredundant
c           MB        restarts           trail          variables
c              level       conflicts         glue             remaining
c 
c W 244.70 1262 5765 17 5371 153036 21850 17% 73 10703141 198403 95%
c - 248.68 1261 7422 18 5371 154952 14188 19% 80 10703141 198403 95%
c I 255.62 1261 15488 18 5374 171044 27848 26% 144 10703141 198403 95%
c - 259.33 1279 15673 19 5375 172222 18514 26% 142 10703141 198403 95%
c s 259.80 1279 15689 19 5375 172690 18203 26% 142 10703141 198403 95%
c w 267.89 1279 15689 19 5375 172690 18203 26% 142 10703141 198403 95%
c s 276.73 1279 15689 19 5375 172690 18017 26% 142 10703141 198403 95%
c ^ 278.77 1279 15689 19 5375 172690 18017 26% 142 10703141 198403 95%
c B 291.35 1279 12980 19 5385 190048 32320 25% 133 10703141 198403 95%
c - 294.77 1265 12984 20 5385 190400 19502 25% 133 10703141 198403 95%
c - 302.18 1266 10977 21 5393 209485 20001 25% 133 10703141 198403 95%
c W 309.15 1266 10904 21 5393 210049 20468 25% 133 10703141 198403 95%
c - 324.82 1266 8761 22 5401 229482 20906 23% 130 10703141 198403 95%
c O 325.02 1266 8606 22 5401 231050 22043 24% 129 10703141 198403 95%
c s 326.76 1266 7514 22 5402 241732 29486 21% 118 10703141 198403 95%
c w 335.07 1266 7514 22 5402 241732 29482 21% 118 10703141 198403 95%
c s 344.40 1266 7514 22 5402 241732 27979 21% 118 10703141 198403 95%
c ^ 346.43 1266 7514 22 5402 241732 27979 21% 118 10703141 198403 95%
c - 350.91 1261 6753 23 5402 250385 19307 19% 111 10703141 198403 95%
c B 351.33 1261 6538 23 5403 253054 21401 18% 108 10703141 198403 95%
c 
c  seconds       reductions       redundant     irredundant
c           MB        restarts           trail           variables
c              level       conflicts          glue             remaining
c 
c ] 351.60 1261 7587 23 5403 255004 22879 19% 108 10703141 198403 95%
c { 351.60 1261 61 23 5403 255004 22879  4% 36 10703141 198403 95%
c - 356.56 1260 62 24 9710 272199 15126  4% 41 10703141 198403 95%
c F 365.29 1260 62 24 10668 276056 16524  4% 42 10703141 198403 95%
c - 370.82 1260 57 25 10674 294921 18565  4% 41 10703141 198403 95%
c B 371.46 1260 56 25 10674 300061 22152  3% 41 10703141 198403 95%
c - 377.14 1263 97 26 12527 318551 23572  4% 43 10703141 198403 95%
c s 378.05 1263 104 26 12527 322284 25863  4% 42 10703141 198403 95%
c w 385.95 1263 104 26 12527 322284 25854  4% 42 10703141 198403 95%
c s 395.19 1263 104 26 12527 322284 25739  4% 42 10703141 198403 95%
c W 410.20 1263 109 26 12527 325063 28010  4% 42 10703141 198403 95%
c - 433.49 1262 98 27 12543 343090 24763  3% 42 10703141 198403 95%
c # 434.88 1262 92 27 12543 351066 29638  3% 41 10703141 198403 95%
c - 443.46 1262 85 28 12543 368537 26438  3% 40 10703141 198403 95%
c B 445.54 1262 82 28 12543 378068 34175  3% 39 10703141 198403 95%
c - 466.88 1262 80 29 12597 394893 28218  3% 39 10703141 198403 95%
c W 483.93 1262 76 29 12659 406069 35950  3% 39 10703141 198403 95%
c - 492.49 1262 70 30 12707 422159 25289  3% 39 10703141 198403 95%
c F 494.59 1262 67 30 12782 435072 32779  3% 39 10703141 198403 95%
c - 501.82 1262 67 31 12784 450333 26574  3% 38 10703141 198403 95%
c 
c  seconds     reductions        redundant    irredundant
c           MB       restarts           trail          variables
c             level       conflicts         glue             remaining
c 
c B 517.10 1262 63 31 12825 465074 36750  3% 38 10703141 198403 95%
c - 525.17 1262 68 32 12909 479416 28798  4% 38 10703141 198403 95%
c W 545.49 1262 65 32 13021 496075 41872  4% 38 10703141 198403 95%
c - 553.79 1263 63 33 13038 509409 31997  4% 38 10703141 198403 95%
c } 554.17 1263 62 33 13040 511004 33305  4% 38 10703141 198403 95%
c [ 554.17 1263 7587 33 13040 511004 33305 19% 108 10703141 198403 95%
c W 587.51 1263 6435 33 13040 528076 46378 17% 101 10703141 198403 95%
c - 594.43 1265 5589 34 13041 540312 31113 15% 96 10703141 198403 95%
c ] 599.97 1265 5980 34 13051 556398 43407 16% 101 10703141 198403 95%
c ? 599.97 1265 5980 34 13051 556398 43407 16% 101 10703141 198403 95%
c 
c --- [ result ] -------------------------------------------------------------
c 
c UNKNOWN
c 
c --- [ run-time profiling ] -------------------------------------------------
c 
c process time taken by individual solving procedures
c (percentage relative to process time for solving)
c 
c       345.07   58.14% search
c       248.49   41.86% simplify
c       139.96   23.58% unstable
c       114.18   19.24% stable
c        90.89   15.31% walk
c        66.38   11.18% ternary
c        55.09    9.28% elim
c        41.80    7.04% vivify
c        11.10    1.87% probe
c         9.75    1.64% subsume
c         6.41    1.08% parse
c         0.04    0.01% lucky
c   =================================
c       593.56   98.93% solve
c 
c last line shows process time for solving
c (percentage relative to total process time)
c 
c --- [ statistics ] ---------------------------------------------------------
c 
c chronological:             93029        16.72 %  of conflicts
c conflicts:                556398       937.39    per second
c decisions:               2564311      4320.21    per second
c eliminated:                 9237         4.41 %  of all variables
c fixed:                      1600         0.76 %  of all variables
c learned:                  551076        99.04 %  per conflict
c learned_lits:           75084039       100.00 %  learned literals
c minimized:                     0         0.00 %  learned literals
c shrunken:               30596594        40.75 %  learned literals
c minishrunken:            1610926         2.15 %  learned literals
c propagations:          206368474         0.35 M  per second
c reduced:                  332569        59.77 %  per conflict
c rephased:                     32     17387.44    interval
c restarts:                  13051        42.63    interval
c stabilizing:                   5        38.71 %  of conflicts
c subsumed:                 171230         0.70 %  of all clauses
c strengthened:              19278         0.08 %  of all clauses
c vivified:                     28         0.00 %  of all clauses
c walked:                       10     55639.80    interval
c weakened:                 975519         2.70    average size
c 
c seconds are measured in process time for solving
c 
c --- [ resources ] ----------------------------------------------------------
c 
c total process time since initialization:       599.97    seconds
c total real time since initialization:          600.00    seconds
c maximum resident set size of process:         1617.02    MB
c 
c --- [ shutting down ] ------------------------------------------------------
c 
c exit 0
